12982
1 0 0 0 0 1 0 0 1 1 0 0 1 1 1 0 0 1 0 0 
17 14 5 0 17 0 13 9 5 17 13 0 5 5 9 8 13 17 5 8 17 0 13 8 17 5 13 14 5 14 12 13 5 0 13 14 17 5 0 0 17 8 12 13 8 5 0 13 8 17 12 8 17 14 17 0 17 8 9 17 14 12 5 17 9 17 8 12 9 17 0 17 12 17 14 17 17 17 9 13 
